p tw 48 53
1 2
2 13
3 4
4 5
4 7
5 6
6 47
7 8
8 9
9 10
10 11
11 12
12 14
13 24
14 15
14 31
15 16
16 17
17 18
18 19
19 20
19 31
20 21
21 22
22 23
23 25
24 35
25 26
26 27
27 28
28 29
29 30
30 10
31 32
32 33
32 40
33 34
34 36
34 38
35 44
35 45
36 37
37 40
38 39
39 40
40 41
41 42
42 43
44 42
45 46
46 47
47 48
48 3
